param r :=
[*,*,1]:	1		2		3		:=
		1	0.95	0.00032	0.00028
		2	3123	0.95	0.88
		3	3550	1.1363	0.95
[*,*,2]:	1		2		3		:=
		1	0.95	0.00032	0.00028
		2	3200	0.95	0.8
		3	3541	1.40	0.95
[*,*,3]:	1		2		3		:=
		1	0.95	0.00058	0.00045
		2	3123	0.95	0.9
		3	3541	1.140	0.95
[*,*,4]:	1		2		3		:=
		1	0.95	0.00032	0.00028
		2	3250	0.95	0.75
		3	3400	1.1363	0.95
;